c "191335.clq"
p edge 120 464
e 1 5
e 1 6
e 1 7
e 1 15
e 1 19
e 1 20
e 1 46
e 1 60
e 1 77
e 1 114
e 2 5
e 2 6
e 2 10
e 2 11
e 2 14
e 2 19
e 2 21
e 2 23
e 2 36
e 2 39
e 2 53
e 2 54
e 2 70
e 2 71
e 2 74
e 2 93
e 2 106
e 2 110
e 3 5
e 3 6
e 3 7
e 3 8
e 3 10
e 3 13
e 3 16
e 3 20
e 3 32
e 3 33
e 3 46
e 3 48
e 3 49
e 3 54
e 3 57
e 3 84
e 3 93
e 4 5
e 4 22
e 4 24
e 4 27
e 4 29
e 4 30
e 4 51
e 4 59
e 4 69
e 4 89
e 4 91
e 4 97
e 4 104
e 4 107
e 4 120
e 5 6
e 5 7
e 5 8
e 5 9
e 5 10
e 5 11
e 5 12
e 5 15
e 5 17
e 5 20
e 5 21
e 5 24
e 5 26
e 5 27
e 5 28
e 5 30
e 5 31
e 5 35
e 5 37
e 5 39
e 5 43
e 5 49
e 5 54
e 5 56
e 5 61
e 5 62
e 5 65
e 5 67
e 5 68
e 5 73
e 5 75
e 5 76
e 5 77
e 5 78
e 5 79
e 5 83
e 5 85
e 5 90
e 5 99
e 5 111
e 5 114
e 5 117
e 5 119
e 6 7
e 6 8
e 6 9
e 6 16
e 6 18
e 6 19
e 6 22
e 6 27
e 6 29
e 6 37
e 6 38
e 6 40
e 6 41
e 6 43
e 6 49
e 6 55
e 6 59
e 6 81
e 6 82
e 6 96
e 6 108
e 6 111
e 6 119
e 7 8
e 7 9
e 7 11
e 7 12
e 7 13
e 7 14
e 7 15
e 7 16
e 7 17
e 7 18
e 7 22
e 7 29
e 7 33
e 7 34
e 7 37
e 7 40
e 7 50
e 7 53
e 7 65
e 7 67
e 7 80
e 7 89
e 7 94
e 7 115
e 7 116
e 8 9
e 8 11
e 8 12
e 8 15
e 8 17
e 8 20
e 8 21
e 8 23
e 8 24
e 8 25
e 8 43
e 8 46
e 8 47
e 8 52
e 8 53
e 8 81
e 8 87
e 8 95
e 9 10
e 9 13
e 9 14
e 9 18
e 9 23
e 9 29
e 9 30
e 9 34
e 9 36
e 9 84
e 9 95
e 10 12
e 10 23
e 10 31
e 10 41
e 10 64
e 10 92
e 10 102
e 10 115
e 11 13
e 11 24
e 11 39
e 11 42
e 11 45
e 11 47
e 11 51
e 11 57
e 11 69
e 11 80
e 11 83
e 11 88
e 11 97
e 11 110
e 12 14
e 12 18
e 12 26
e 12 35
e 12 41
e 12 43
e 12 48
e 12 50
e 12 62
e 12 68
e 12 79
e 12 80
e 12 82
e 12 101
e 12 117
e 12 120
e 13 17
e 13 26
e 13 40
e 13 44
e 13 50
e 13 87
e 13 91
e 13 108
e 14 16
e 14 19
e 14 22
e 14 25
e 14 31
e 14 34
e 14 42
e 14 44
e 14 47
e 14 57
e 14 60
e 14 64
e 14 69
e 14 72
e 14 85
e 14 86
e 14 87
e 14 112
e 15 26
e 15 27
e 15 56
e 15 73
e 15 79
e 15 82
e 16 28
e 16 36
e 16 42
e 16 71
e 16 82
e 16 86
e 16 97
e 16 99
e 17 25
e 17 38
e 17 81
e 17 120
e 18 21
e 18 28
e 18 32
e 18 33
e 18 34
e 18 44
e 18 45
e 18 48
e 18 53
e 18 54
e 18 58
e 18 65
e 18 67
e 18 68
e 18 88
e 18 104
e 18 113
e 19 33
e 19 42
e 19 56
e 19 62
e 19 92
e 19 93
e 19 94
e 19 101
e 19 105
e 19 119
e 21 61
e 21 67
e 21 110
e 21 114
e 22 25
e 22 102
e 23 40
e 23 47
e 23 68
e 23 96
e 23 116
e 23 120
e 24 31
e 24 32
e 24 36
e 24 58
e 24 66
e 24 100
e 24 106
e 25 58
e 25 89
e 26 28
e 26 30
e 26 37
e 26 51
e 26 55
e 26 83
e 26 86
e 26 103
e 26 113
e 27 98
e 28 45
e 28 66
e 28 70
e 28 72
e 28 73
e 28 98
e 29 38
e 29 60
e 29 63
e 29 77
e 30 32
e 30 35
e 30 63
e 30 66
e 30 73
e 30 87
e 30 101
e 30 108
e 30 109
e 30 113
e 30 118
e 31 38
e 31 41
e 31 52
e 31 75
e 32 35
e 33 46
e 33 101
e 33 104
e 34 44
e 34 86
e 34 112
e 36 39
e 36 78
e 36 80
e 36 99
e 37 45
e 37 61
e 37 64
e 37 111
e 38 76
e 38 88
e 38 99
e 38 100
e 38 113
e 39 49
e 39 50
e 39 59
e 39 75
e 39 106
e 40 63
e 40 74
e 40 84
e 40 95
e 41 61
e 42 63
e 43 52
e 43 58
e 43 70
e 43 78
e 43 85
e 43 119
e 44 55
e 45 66
e 45 83
e 46 105
e 46 107
e 46 111
e 47 48
e 47 51
e 47 78
e 47 89
e 48 52
e 48 62
e 48 110
e 49 55
e 49 88
e 49 105
e 50 64
e 50 65
e 50 74
e 50 94
e 50 118
e 51 96
e 52 56
e 52 57
e 53 60
e 54 59
e 54 74
e 54 91
e 54 92
e 55 96
e 55 107
e 56 100
e 57 72
e 57 75
e 57 98
e 57 114
e 58 71
e 58 109
e 59 69
e 59 117
e 60 71
e 60 100
e 61 76
e 61 102
e 65 85
e 65 103
e 65 116
e 66 76
e 66 115
e 68 77
e 68 81
e 68 94
e 68 117
e 69 70
e 69 93
e 69 95
e 69 118
e 70 79
e 71 72
e 71 84
e 71 92
e 72 116
e 72 118
e 73 90
e 75 104
e 77 103
e 77 109
e 79 109
e 80 105
e 80 112
e 81 90
e 83 90
e 84 112
e 85 97
e 85 106
e 87 91
e 87 102
e 87 108
e 89 103
e 93 107
e 94 98
e 110 115
